decision_x1=[0,4];
decision_x2=[0,4];
decision_x3=[0,4];
decision_x4=[0,4];
decision_x5=[0,4];
decision_x6=[0,4];
decision_x7=[0,4];
decision_x8=[0,4];
decision_x9=[0,4];
decision_x10=[0,4];
random_y1=[0,4];
random_y2=[0,4];
constraint_x2_x1=[
0,1,0.33|
0,2,3.9|
0,3,9.8|
0,4,9.3|
1,0,8.5|
1,2,9|
1,3,5.1|
1,4,5.1|
2,0,3.7|
2,1,7.3|
2,3,8.9|
2,4,2.8|
3,0,5.6|
3,1,9.3|
3,2,8.2|
3,4,1|
4,0,4.9|
4,1,1.7|
4,2,0.072|
4,3,5.8|
];
constraint_x4_x1=[
0,1,4|
0,2,8.6|
0,3,2.4|
0,4,0.85|
1,0,5.9|
1,2,2.1|
1,3,0.14|
1,4,9|
2,0,2.4|
2,1,6.3|
2,3,5.5|
2,4,7.1|
3,0,0.33|
3,1,1.8|
3,2,8.3|
3,4,9.9|
4,0,7.9|
4,1,4|
4,2,3.9|
4,3,9.3|
];
constraint_x5_x1=[
0,1,8.4|
0,2,4.5|
0,3,3.2|
0,4,5.8|
1,0,0.99|
1,2,9.5|
1,3,7.4|
1,4,4.8|
2,0,2|
2,1,5.8|
2,3,8.5|
2,4,6.6|
3,0,9.1|
3,1,8.1|
3,2,2|
3,4,8.9|
4,0,3.7|
4,1,2.3|
4,2,7.3|
4,3,3.9|
];
constraint_x5_x4=[
0,1,2.2|
0,2,4.7|
0,3,9.2|
0,4,4.7|
1,0,7|
1,2,7.4|
1,3,4.5|
1,4,3.2|
2,0,0.71|
2,1,2.5|
2,3,3.7|
2,4,9.6|
3,0,4|
3,1,1.5|
3,2,1.2|
3,4,6.4|
4,0,7|
4,1,0.54|
4,2,7.5|
4,3,7.2|
];
constraint_x6_x2=[
0,1,1.2|
0,2,2.2|
0,3,7.7|
0,4,3.9|
1,0,9.6|
1,2,9|
1,3,0.63|
1,4,6.4|
2,0,6.1|
2,1,1.1|
2,3,1.3|
2,4,6.7|
3,0,9.2|
3,1,4.3|
3,2,6.1|
3,4,2.2|
4,0,8.6|
4,1,4.8|
4,2,8.6|
4,3,2.7|
];
constraint_x6_x4=[
0,1,0.99|
0,2,3.7|
0,3,8.4|
0,4,8.5|
1,0,4.2|
1,2,1.4|
1,3,9.3|
1,4,8|
2,0,5.6|
2,1,1.1|
2,3,9.7|
2,4,7.6|
3,0,7.5|
3,1,4.9|
3,2,1.2|
3,4,8.2|
4,0,2.1|
4,1,9.6|
4,2,3.3|
4,3,0.35|
];
constraint_x6_x5=[
0,1,9.9|
0,2,6|
0,3,7.6|
0,4,1.1|
1,0,2.6|
1,2,4.4|
1,3,4.3|
1,4,5.7|
2,0,2.7|
2,1,3.4|
2,3,1.8|
2,4,3.9|
3,0,6.7|
3,1,4.3|
3,2,2.7|
3,4,2.6|
4,0,9.8|
4,1,0.97|
4,2,5.4|
4,3,2.8|
];
constraint_x7_x2=[
0,1,8.2|
0,2,4.6|
0,3,1.7|
0,4,3.5|
1,0,2.6|
1,2,5|
1,3,6.7|
1,4,6.9|
2,0,8.2|
2,1,4.1|
2,3,5.9|
2,4,7.6|
3,0,0.31|
3,1,4.8|
3,2,1.3|
3,4,4.7|
4,0,4.5|
4,1,7.4|
4,2,3.6|
4,3,4.4|
];
constraint_x7_x3=[
0,1,6.7|
0,2,7.5|
0,3,4.9|
0,4,0.63|
1,0,5.3|
1,2,6.3|
1,3,1.8|
1,4,3.7|
2,0,1.2|
2,1,9.3|
2,3,8.3|
2,4,1.3|
3,0,1.8|
3,1,9.8|
3,2,1|
3,4,6.9|
4,0,5.9|
4,1,1.5|
4,2,0.83|
4,3,2.2|
];
constraint_x7_x6=[
0,1,7.5|
0,2,7.3|
0,3,6.6|
0,4,5.2|
1,0,0.93|
1,2,0.56|
1,3,3.6|
1,4,8.9|
2,0,6.3|
2,1,5.8|
2,3,8|
2,4,8.7|
3,0,3.1|
3,1,7.4|
3,2,1.9|
3,4,3.7|
4,0,0.15|
4,1,5|
4,2,7.2|
4,3,5.5|
];
constraint_x8_x2=[
0,1,8.1|
0,2,8.4|
0,3,0.73|
0,4,3.8|
1,0,2.1|
1,2,4.1|
1,3,2.7|
1,4,3.9|
2,0,4.6|
2,1,5.4|
2,3,8.9|
2,4,3.6|
3,0,2.8|
3,1,3.8|
3,2,7.7|
3,4,3.8|
4,0,8.4|
4,1,0.32|
4,2,5.3|
4,3,8.3|
];
constraint_x8_x4=[
0,1,6.9|
0,2,5.3|
0,3,9.9|
0,4,4.3|
1,0,2.1|
1,2,5.2|
1,3,5.6|
1,4,1.9|
2,0,6.5|
2,1,3.8|
2,3,3.3|
2,4,9.2|
3,0,9.2|
3,1,9.6|
3,2,4.3|
3,4,5.8|
4,0,9.8|
4,1,8.6|
4,2,4.9|
4,3,9.4|
];
constraint_x8_x5=[
0,1,6.3|
0,2,0.97|
0,3,7.7|
0,4,2.2|
1,0,2.3|
1,2,3.3|
1,3,6.7|
1,4,4.9|
2,0,9.6|
2,1,1.2|
2,3,6.6|
2,4,3.7|
3,0,6.8|
3,1,2.1|
3,2,2.3|
3,4,4.8|
4,0,4|
4,1,3.3|
4,2,2.8|
4,3,7.7|
];
constraint_x8_x6=[
0,1,5.5|
0,2,0.66|
0,3,8.7|
0,4,4.8|
1,0,2|
1,2,3.1|
1,3,0.4|
1,4,7.9|
2,0,2.1|
2,1,8.5|
2,3,9|
2,4,6.9|
3,0,9.5|
3,1,6.6|
3,2,2.1|
3,4,0.97|
4,0,4.8|
4,1,3.9|
4,2,9.9|
4,3,9.6|
];
constraint_x8_x7=[
0,1,4.2|
0,2,7.9|
0,3,4.9|
0,4,0.57|
1,0,8.9|
1,2,2.3|
1,3,1.8|
1,4,9.6|
2,0,2.5|
2,1,6.2|
2,3,3.8|
2,4,0.45|
3,0,0.084|
3,1,9.2|
3,2,4.2|
3,4,6.2|
4,0,5.1|
4,1,5|
4,2,3.1|
4,3,9.1|
];
constraint_x9_x4=[
0,1,4.4|
0,2,1.4|
0,3,0.45|
0,4,1.9|
1,0,3|
1,2,6.4|
1,3,5.6|
1,4,3.5|
2,0,2.8|
2,1,4.4|
2,3,7.7|
2,4,5.7|
3,0,0.1|
3,1,1.3|
3,2,9.6|
3,4,3.4|
4,0,1.4|
4,1,1.7|
4,2,1.7|
4,3,5.5|
];
constraint_x9_x5=[
0,1,8.5|
0,2,5.3|
0,3,1.6|
0,4,4.5|
1,0,4.1|
1,2,4.9|
1,3,6.9|
1,4,2.1|
2,0,6.1|
2,1,7|
2,3,9.9|
2,4,3.3|
3,0,0.17|
3,1,1.1|
3,2,3.9|
3,4,4.5|
4,0,0.39|
4,1,6.8|
4,2,2.4|
4,3,0.16|
];
constraint_x9_x7=[
0,1,8.1|
0,2,7|
0,3,2.8|
0,4,7|
1,0,6.7|
1,2,7.9|
1,3,8.2|
1,4,3.4|
2,0,2.3|
2,1,3.1|
2,3,7.5|
2,4,2.3|
3,0,3.4|
3,1,4.4|
3,2,4.3|
3,4,9.6|
4,0,6.5|
4,1,7.1|
4,2,0.43|
4,3,5.8|
];
constraint_x10_x2=[
0,1,9.2|
0,2,3.5|
0,3,1.3|
0,4,5.5|
1,0,3.8|
1,2,0.94|
1,3,3.2|
1,4,1.6|
2,0,5.3|
2,1,9.6|
2,3,8.2|
2,4,2.9|
3,0,8.2|
3,1,4.9|
3,2,2.3|
3,4,0.79|
4,0,8.4|
4,1,8.8|
4,2,1.7|
4,3,4.4|
];
constraint_x10_x5=[
0,1,1.4|
0,2,4.6|
0,3,9.4|
0,4,0.91|
1,0,0.047|
1,2,5.8|
1,3,3.8|
1,4,0.5|
2,0,6.3|
2,1,7.5|
2,3,2.6|
2,4,0.44|
3,0,7|
3,1,0.95|
3,2,8.4|
3,4,7.9|
4,0,3.7|
4,1,7.9|
4,2,8.6|
4,3,3.9|
];
constraint_x10_x6=[
0,1,7.7|
0,2,6.8|
0,3,8.5|
0,4,7.7|
1,0,9.9|
1,2,4.3|
1,3,6.4|
1,4,8.6|
2,0,9.1|
2,1,4.2|
2,3,6.4|
2,4,4.8|
3,0,7.6|
3,1,1.1|
3,2,2.5|
3,4,4.3|
4,0,2.2|
4,1,9.1|
4,2,7.7|
4,3,5.3|
];
constraint_x10_x8=[
0,1,2|
0,2,9|
0,3,5.6|
0,4,9.1|
1,0,6.7|
1,2,3.3|
1,3,7.3|
1,4,7.1|
2,0,5.9|
2,1,5.2|
2,3,3|
2,4,4.8|
3,0,5.6|
3,1,2.3|
3,2,9.3|
3,4,8.1|
4,0,7.5|
4,1,4.4|
4,2,0.43|
4,3,8.3|
];
constraint_x10_x9=[
0,1,3.7|
0,2,4.3|
0,3,5.2|
0,4,1.1|
1,0,6.4|
1,2,5.3|
1,3,0.59|
1,4,3.6|
2,0,6|
2,1,7|
2,3,2.7|
2,4,5.1|
3,0,7.7|
3,1,8.5|
3,2,9.4|
3,4,0.91|
4,0,6.9|
4,1,1.7|
4,2,9|
4,3,7.2|
];
constraint_x1_y1=[
0,0,2.2|
0,1,8.2|
0,2,8.6|
0,3,5.3|
0,4,9.3|
1,0,5.1|
1,1,3.1|
1,2,9.8|
1,3,2.3|
1,4,1.2|
2,0,2.8|
2,1,0.74|
2,2,3.5|
2,3,6.9|
2,4,4.9|
3,0,5.9|
3,1,4.8|
3,2,6.4|
3,3,5|
3,4,4.3|
4,0,9.1|
4,1,8.2|
4,2,6|
4,3,7.5|
4,4,1.3|
];
constraint_x2_y2=[
0,0,3.8|
0,1,0.11|
0,2,2.3|
0,3,5|
0,4,0.42|
1,0,1.4|
1,1,9.2|
1,2,6.8|
1,3,3.1|
1,4,6.3|
2,0,8.8|
2,1,2.3|
2,2,6.1|
2,3,2.2|
2,4,6.8|
3,0,7.3|
3,1,0.16|
3,2,6.3|
3,3,8.7|
3,4,1.5|
4,0,0.12|
4,1,9.6|
4,2,5.1|
4,3,8.7|
4,4,0.83|
];
initial_distribution_y1=[0.18,0.29,0.12,0.21,0.2];
initial_distribution_y2=[0.29,0.44,0.11,0.017,0.14];
transition_y1=[
0.13,0.37,0.16,0.3,0.049|
0.28,0.18,0.25,0.073,0.22|
0.12,0.088,0.33,0.32,0.14|
0.077,0.074,0.33,0.18,0.34|
0.19,0.43,0.18,0.12,0.072|
];
transition_y2=[
0.13,0.59,0.13,0.013,0.14|
0.22,0.18,0.26,0.26,0.086|
0.23,0.14,0.32,0.17,0.14|
0.017,0.49,0.11,0.1,0.28|
0.39,0.15,0.15,0.0074,0.3|
];
